p cnf 121 1972
-1 0
-111 0
-2 0
-112 0
-3 0
-113 0
-4 0
-114 0
-5 0
-115 0
-6 0
-116 0
-7 0
-117 0
-8 0
-118 0
-9 0
-119 0
-10 0
-120 0
-11 0
-121 0
-1 0
-11 0
-12 0
-22 0
-23 0
-33 0
-34 0
-44 0
-45 0
-55 0
-56 0
-66 0
-67 0
-77 0
-78 0
-88 0
-89 0
-99 0
-100 0
-110 0
-111 0
-121 0
-13 0
-1 0
-2 0
-3 0
-12 0
-14 0
-23 0
-24 0
-25 0
-14 0
-2 -3 0
-2 -4 0
-2 -13 0
-2 -15 0
-2 -24 0
-2 -25 0
-2 -26 0
2 3 4 13 15 24 25 26 0
-3 -4 0
-3 -13 0
-3 -15 0
-3 -24 0
-3 -25 0
-3 -26 0
-4 -13 0
-4 -15 0
-4 -24 0
-4 -25 0
-4 -26 0
-13 -15 0
-13 -24 0
-13 -25 0
-13 -26 0
-15 -24 0
-15 -25 0
-15 -26 0
-24 -25 0
-24 -26 0
-25 -26 0
-15 0
-3 -4 0
-3 -5 0
-3 -14 0
-3 -16 0
-3 -25 0
-3 -26 0
-3 -27 0
3 4 5 14 16 25 26 27 0
-4 -5 0
-4 -14 0
-4 -16 0
-4 -25 0
-4 -26 0
-4 -27 0
-5 -14 0
-5 -16 0
-5 -25 0
-5 -26 0
-5 -27 0
-14 -16 0
-14 -25 0
-14 -26 0
-14 -27 0
-16 -25 0
-16 -26 0
-16 -27 0
-25 -26 0
-25 -27 0
-26 -27 0
-16 0
-4 -5 0
-4 -6 0
-4 -15 0
-4 -17 0
-4 -26 0
-4 -27 0
-4 -28 0
4 5 6 15 17 26 27 28 0
-5 -6 0
-5 -15 0
-5 -17 0
-5 -26 0
-5 -27 0
-5 -28 0
-6 -15 0
-6 -17 0
-6 -26 0
-6 -27 0
-6 -28 0
-15 -17 0
-15 -26 0
-15 -27 0
-15 -28 0
-17 -26 0
-17 -27 0
-17 -28 0
-26 -27 0
-26 -28 0
-27 -28 0
-17 0
-5 0
-6 0
-7 0
-16 0
-18 0
-27 0
-28 0
-29 0
-18 0
-6 0
-7 0
-8 0
-17 0
-19 0
-28 0
-29 0
-30 0
-19 0
-7 0
-8 0
-9 0
-18 0
-20 0
-29 0
-30 0
-31 0
-20 0
-8 -9 0
-8 -10 0
-8 -19 0
-8 -21 0
-8 -30 0
-8 -31 0
-8 -32 0
8 9 10 19 21 30 31 32 0
-9 -10 0
-9 -19 0
-9 -21 0
-9 -30 0
-9 -31 0
-9 -32 0
-10 -19 0
-10 -21 0
-10 -30 0
-10 -31 0
-10 -32 0
-19 -21 0
-19 -30 0
-19 -31 0
-19 -32 0
-21 -30 0
-21 -31 0
-21 -32 0
-30 -31 0
-30 -32 0
-31 -32 0
-24 0
-12 0
-13 0
-14 0
-23 0
-25 0
-34 0
-35 0
-36 0
-25 0
-13 -14 0
-13 -15 0
-13 -24 0
-13 -26 0
-13 -35 0
-13 -36 0
-13 -37 0
13 14 15 24 26 35 36 37 0
-14 -15 0
-14 -24 0
-14 -26 0
-14 -35 0
-14 -36 0
-14 -37 0
-15 -24 0
-15 -26 0
-15 -35 0
-15 -36 0
-15 -37 0
-24 -26 0
-24 -35 0
-24 -36 0
-24 -37 0
-26 -35 0
-26 -36 0
-26 -37 0
-35 -36 0
-35 -37 0
-36 -37 0
-27 0
-15 -16 0
-15 -17 0
-15 -26 0
-15 -28 0
-15 -37 0
-15 -38 0
-15 -39 0
15 16 17 26 28 37 38 39 0
-16 -17 0
-16 -26 0
-16 -28 0
-16 -37 0
-16 -38 0
-16 -39 0
-17 -26 0
-17 -28 0
-17 -37 0
-17 -38 0
-17 -39 0
-26 -28 0
-26 -37 0
-26 -38 0
-26 -39 0
-28 -37 0
-28 -38 0
-28 -39 0
-37 -38 0
-37 -39 0
-38 -39 0
-28 0
-16 0
-17 0
-18 0
-27 0
-29 0
-38 0
-39 0
-40 0
-29 0
-17 0
-18 0
-19 0
-28 0
-30 0
-39 0
-40 0
-41 0
-30 0
-18 0
-19 0
-20 0
-29 0
-31 0
-40 0
-41 0
-42 0
-31 0
-19 -20 0
-19 -21 0
-19 -30 0
-19 -32 0
-19 -41 0
-19 -42 0
-19 -43 0
19 20 21 30 32 41 42 43 0
-20 -21 0
-20 -30 0
-20 -32 0
-20 -41 0
-20 -42 0
-20 -43 0
-21 -30 0
-21 -32 0
-21 -41 0
-21 -42 0
-21 -43 0
-30 -32 0
-30 -41 0
-30 -42 0
-30 -43 0
-32 -41 0
-32 -42 0
-32 -43 0
-41 -42 0
-41 -43 0
-42 -43 0
-32 0
-20 -21 0
-20 -22 0
-20 -31 0
-20 -33 0
-20 -42 0
-20 -43 0
-20 -44 0
20 21 22 31 33 42 43 44 0
-21 -22 0
-21 -31 0
-21 -33 0
-21 -42 0
-21 -43 0
-21 -44 0
-22 -31 0
-22 -33 0
-22 -42 0
-22 -43 0
-22 -44 0
-31 -33 0
-31 -42 0
-31 -43 0
-31 -44 0
-33 -42 0
-33 -43 0
-33 -44 0
-42 -43 0
-42 -44 0
-43 -44 0
-35 0
-23 0
-24 0
-25 0
-34 0
-36 0
-45 0
-46 0
-47 0
-36 0
-24 -25 0
-24 -26 0
-24 -35 0
-24 -37 0
-24 -46 0
-24 -47 0
-24 -48 0
24 25 26 35 37 46 47 48 0
-25 -26 0
-25 -35 0
-25 -37 0
-25 -46 0
-25 -47 0
-25 -48 0
-26 -35 0
-26 -37 0
-26 -46 0
-26 -47 0
-26 -48 0
-35 -37 0
-35 -46 0
-35 -47 0
-35 -48 0
-37 -46 0
-37 -47 0
-37 -48 0
-46 -47 0
-46 -48 0
-47 -48 0
-37 0
-25 -26 0
-25 -27 0
-25 -36 0
-25 -38 0
-25 -47 0
-25 -48 0
-25 -49 0
25 26 27 36 38 47 48 49 0
-26 -27 0
-26 -36 0
-26 -38 0
-26 -47 0
-26 -48 0
-26 -49 0
-27 -36 0
-27 -38 0
-27 -47 0
-27 -48 0
-27 -49 0
-36 -38 0
-36 -47 0
-36 -48 0
-36 -49 0
-38 -47 0
-38 -48 0
-38 -49 0
-47 -48 0
-47 -49 0
-48 -49 0
-38 0
-26 -27 0
-26 -28 0
-26 -37 0
-26 -39 0
-26 -48 0
-26 -49 0
-26 -50 0
26 27 28 37 39 48 49 50 0
-27 -28 0
-27 -37 0
-27 -39 0
-27 -48 0
-27 -49 0
-27 -50 0
-28 -37 0
-28 -39 0
-28 -48 0
-28 -49 0
-28 -50 0
-37 -39 0
-37 -48 0
-37 -49 0
-37 -50 0
-39 -48 0
-39 -49 0
-39 -50 0
-48 -49 0
-48 -50 0
-49 -50 0
-39 0
-27 0
-28 0
-29 0
-38 0
-40 0
-49 0
-50 0
-51 0
-40 0
-28 0
-29 0
-30 0
-39 0
-41 0
-50 0
-51 0
-52 0
-41 0
-29 0
-30 0
-31 0
-40 0
-42 0
-51 0
-52 0
-53 0
-42 0
-30 0
-31 0
-32 0
-41 0
-43 0
-52 0
-53 0
-54 0
-43 0
-31 0
-32 0
-33 0
-42 0
-44 0
-53 0
-54 0
-55 0
-46 0
-34 0
-35 0
-36 0
-45 0
-47 0
-56 0
-57 0
-58 0
-47 0
-35 0
-36 0
-37 0
-46 0
-48 0
-57 0
-58 0
-59 0
-48 0
-36 0
-37 0
-38 0
-47 0
-49 0
-58 0
-59 0
-60 0
-49 0
-37 0
-38 0
-39 0
-48 0
-50 0
-59 0
-60 0
-61 0
-50 0
-38 0
-39 0
-40 0
-49 0
-51 0
-60 0
-61 0
-62 0
-51 0
-39 0
-40 0
-41 0
-50 0
-52 0
-61 0
-62 0
-63 0
-52 0
-40 0
-41 0
-42 0
-51 0
-53 0
-62 0
-63 0
-64 0
-53 0
-41 0
-42 0
-43 0
-52 0
-54 0
-63 0
-64 0
-65 0
-54 0
-42 0
-43 0
-44 0
-53 0
-55 0
-64 0
-65 0
-66 0
-57 0
-45 -46 0
-45 -47 0
-45 -56 0
-45 -58 0
-45 -67 0
-45 -68 0
-45 -69 0
45 46 47 56 58 67 68 69 0
-46 -47 0
-46 -56 0
-46 -58 0
-46 -67 0
-46 -68 0
-46 -69 0
-47 -56 0
-47 -58 0
-47 -67 0
-47 -68 0
-47 -69 0
-56 -58 0
-56 -67 0
-56 -68 0
-56 -69 0
-58 -67 0
-58 -68 0
-58 -69 0
-67 -68 0
-67 -69 0
-68 -69 0
-58 0
-46 -47 0
-46 -48 0
-46 -57 0
-46 -59 0
-46 -68 0
-46 -69 0
-46 -70 0
46 47 48 57 59 68 69 70 0
-47 -48 0
-47 -57 0
-47 -59 0
-47 -68 0
-47 -69 0
-47 -70 0
-48 -57 0
-48 -59 0
-48 -68 0
-48 -69 0
-48 -70 0
-57 -59 0
-57 -68 0
-57 -69 0
-57 -70 0
-59 -68 0
-59 -69 0
-59 -70 0
-68 -69 0
-68 -70 0
-69 -70 0
-59 0
-47 -48 0
-47 -49 0
-47 -58 0
-47 -60 0
-47 -69 0
-47 -70 0
-47 -71 0
47 48 49 58 60 69 70 71 0
-48 -49 0
-48 -58 0
-48 -60 0
-48 -69 0
-48 -70 0
-48 -71 0
-49 -58 0
-49 -60 0
-49 -69 0
-49 -70 0
-49 -71 0
-58 -60 0
-58 -69 0
-58 -70 0
-58 -71 0
-60 -69 0
-60 -70 0
-60 -71 0
-69 -70 0
-69 -71 0
-70 -71 0
-60 0
-48 -49 0
-48 -50 0
-48 -59 0
-48 -61 0
-48 -70 0
-48 -71 0
-48 -72 0
48 49 50 59 61 70 71 72 0
-49 -50 0
-49 -59 0
-49 -61 0
-49 -70 0
-49 -71 0
-49 -72 0
-50 -59 0
-50 -61 0
-50 -70 0
-50 -71 0
-50 -72 0
-59 -61 0
-59 -70 0
-59 -71 0
-59 -72 0
-61 -70 0
-61 -71 0
-61 -72 0
-70 -71 0
-70 -72 0
-71 -72 0
-61 0
-49 -50 0
-49 -51 0
-49 -60 0
-49 -62 0
-49 -71 0
-49 -72 0
-49 -73 0
49 50 51 60 62 71 72 73 0
-50 -51 0
-50 -60 0
-50 -62 0
-50 -71 0
-50 -72 0
-50 -73 0
-51 -60 0
-51 -62 0
-51 -71 0
-51 -72 0
-51 -73 0
-60 -62 0
-60 -71 0
-60 -72 0
-60 -73 0
-62 -71 0
-62 -72 0
-62 -73 0
-71 -72 0
-71 -73 0
-72 -73 0
-62 0
-50 0
-51 0
-52 0
-61 0
-63 0
-72 0
-73 0
-74 0
-63 0
-51 0
-52 0
-53 0
-62 0
-64 0
-73 0
-74 0
-75 0
-64 0
-52 -53 0
-52 -54 0
-52 -63 0
-52 -65 0
-52 -74 0
-52 -75 0
-52 -76 0
52 53 54 63 65 74 75 76 0
-53 -54 0
-53 -63 0
-53 -65 0
-53 -74 0
-53 -75 0
-53 -76 0
-54 -63 0
-54 -65 0
-54 -74 0
-54 -75 0
-54 -76 0
-63 -65 0
-63 -74 0
-63 -75 0
-63 -76 0
-65 -74 0
-65 -75 0
-65 -76 0
-74 -75 0
-74 -76 0
-75 -76 0
-65 0
-53 -54 0
-53 -55 0
-53 -64 0
-53 -66 0
-53 -75 0
-53 -76 0
-53 -77 0
53 54 55 64 66 75 76 77 0
-54 -55 0
-54 -64 0
-54 -66 0
-54 -75 0
-54 -76 0
-54 -77 0
-55 -64 0
-55 -66 0
-55 -75 0
-55 -76 0
-55 -77 0
-64 -66 0
-64 -75 0
-64 -76 0
-64 -77 0
-66 -75 0
-66 -76 0
-66 -77 0
-75 -76 0
-75 -77 0
-76 -77 0
-69 0
-57 -58 0
-57 -59 0
-57 -68 0
-57 -70 0
-57 -79 0
-57 -80 0
-57 -81 0
57 58 59 68 70 79 80 81 0
-58 -59 0
-58 -68 0
-58 -70 0
-58 -79 0
-58 -80 0
-58 -81 0
-59 -68 0
-59 -70 0
-59 -79 0
-59 -80 0
-59 -81 0
-68 -70 0
-68 -79 0
-68 -80 0
-68 -81 0
-70 -79 0
-70 -80 0
-70 -81 0
-79 -80 0
-79 -81 0
-80 -81 0
-70 0
-58 -59 0
-58 -60 0
-58 -69 0
-58 -71 0
-58 -80 0
-58 -81 0
-58 -82 0
58 59 60 69 71 80 81 82 0
-59 -60 0
-59 -69 0
-59 -71 0
-59 -80 0
-59 -81 0
-59 -82 0
-60 -69 0
-60 -71 0
-60 -80 0
-60 -81 0
-60 -82 0
-69 -71 0
-69 -80 0
-69 -81 0
-69 -82 0
-71 -80 0
-71 -81 0
-71 -82 0
-80 -81 0
-80 -82 0
-81 -82 0
-72 0
-60 -61 0
-60 -62 0
-60 -71 0
-60 -73 0
-60 -82 0
-60 -83 0
-60 -84 0
60 61 62 71 73 82 83 84 0
-61 -62 0
-61 -71 0
-61 -73 0
-61 -82 0
-61 -83 0
-61 -84 0
-62 -71 0
-62 -73 0
-62 -82 0
-62 -83 0
-62 -84 0
-71 -73 0
-71 -82 0
-71 -83 0
-71 -84 0
-73 -82 0
-73 -83 0
-73 -84 0
-82 -83 0
-82 -84 0
-83 -84 0
-73 0
-61 0
-62 0
-63 0
-72 0
-74 0
-83 0
-84 0
-85 0
-74 0
-62 0
-63 0
-64 0
-73 0
-75 0
-84 0
-85 0
-86 0
-75 0
-63 -64 0
-63 -65 0
-63 -74 0
-63 -76 0
-63 -85 0
-63 -86 0
-63 -87 0
63 64 65 74 76 85 86 87 0
-64 -65 0
-64 -74 0
-64 -76 0
-64 -85 0
-64 -86 0
-64 -87 0
-65 -74 0
-65 -76 0
-65 -85 0
-65 -86 0
-65 -87 0
-74 -76 0
-74 -85 0
-74 -86 0
-74 -87 0
-76 -85 0
-76 -86 0
-76 -87 0
-85 -86 0
-85 -87 0
-86 -87 0
-79 0
-67 -68 -69 0
-67 -68 -78 0
-67 -68 -80 0
-67 -68 -89 0
-67 -68 -90 0
-67 -68 -91 0
-67 -69 -78 0
-67 -69 -80 0
-67 -69 -89 0
-67 -69 -90 0
-67 -69 -91 0
-67 -78 -80 0
-67 -78 -89 0
-67 -78 -90 0
-67 -78 -91 0
-67 -80 -89 0
-67 -80 -90 0
-67 -80 -91 0
-67 -89 -90 0
-67 -89 -91 0
-67 -90 -91 0
67 68 69 78 80 89 90 0
67 68 69 78 80 89 91 0
67 68 69 78 80 90 91 0
67 68 69 78 89 90 91 0
67 68 69 80 89 90 91 0
67 68 78 80 89 90 91 0
67 69 78 80 89 90 91 0
-68 -69 -78 0
-68 -69 -80 0
-68 -69 -89 0
-68 -69 -90 0
-68 -69 -91 0
-68 -78 -80 0
-68 -78 -89 0
-68 -78 -90 0
-68 -78 -91 0
-68 -80 -89 0
-68 -80 -90 0
-68 -80 -91 0
-68 -89 -90 0
-68 -89 -91 0
-68 -90 -91 0
68 69 78 80 89 90 91 0
-69 -78 -80 0
-69 -78 -89 0
-69 -78 -90 0
-69 -78 -91 0
-69 -80 -89 0
-69 -80 -90 0
-69 -80 -91 0
-69 -89 -90 0
-69 -89 -91 0
-69 -90 -91 0
-78 -80 -89 0
-78 -80 -90 0
-78 -80 -91 0
-78 -89 -90 0
-78 -89 -91 0
-78 -90 -91 0
-80 -89 -90 0
-80 -89 -91 0
-80 -90 -91 0
-89 -90 -91 0
-80 0
-68 -69 -70 0
-68 -69 -79 0
-68 -69 -81 0
-68 -69 -90 0
-68 -69 -91 0
-68 -69 -92 0
-68 -70 -79 0
-68 -70 -81 0
-68 -70 -90 0
-68 -70 -91 0
-68 -70 -92 0
-68 -79 -81 0
-68 -79 -90 0
-68 -79 -91 0
-68 -79 -92 0
-68 -81 -90 0
-68 -81 -91 0
-68 -81 -92 0
-68 -90 -91 0
-68 -90 -92 0
-68 -91 -92 0
68 69 70 79 81 90 91 0
68 69 70 79 81 90 92 0
68 69 70 79 81 91 92 0
68 69 70 79 90 91 92 0
68 69 70 81 90 91 92 0
68 69 79 81 90 91 92 0
68 70 79 81 90 91 92 0
-69 -70 -79 0
-69 -70 -81 0
-69 -70 -90 0
-69 -70 -91 0
-69 -70 -92 0
-69 -79 -81 0
-69 -79 -90 0
-69 -79 -91 0
-69 -79 -92 0
-69 -81 -90 0
-69 -81 -91 0
-69 -81 -92 0
-69 -90 -91 0
-69 -90 -92 0
-69 -91 -92 0
69 70 79 81 90 91 92 0
-70 -79 -81 0
-70 -79 -90 0
-70 -79 -91 0
-70 -79 -92 0
-70 -81 -90 0
-70 -81 -91 0
-70 -81 -92 0
-70 -90 -91 0
-70 -90 -92 0
-70 -91 -92 0
-79 -81 -90 0
-79 -81 -91 0
-79 -81 -92 0
-79 -90 -91 0
-79 -90 -92 0
-79 -91 -92 0
-81 -90 -91 0
-81 -90 -92 0
-81 -91 -92 0
-90 -91 -92 0
-81 0
-69 -70 -71 0
-69 -70 -80 0
-69 -70 -82 0
-69 -70 -91 0
-69 -70 -92 0
-69 -70 -93 0
-69 -71 -80 0
-69 -71 -82 0
-69 -71 -91 0
-69 -71 -92 0
-69 -71 -93 0
-69 -80 -82 0
-69 -80 -91 0
-69 -80 -92 0
-69 -80 -93 0
-69 -82 -91 0
-69 -82 -92 0
-69 -82 -93 0
-69 -91 -92 0
-69 -91 -93 0
-69 -92 -93 0
69 70 71 80 82 91 92 0
69 70 71 80 82 91 93 0
69 70 71 80 82 92 93 0
69 70 71 80 91 92 93 0
69 70 71 82 91 92 93 0
69 70 80 82 91 92 93 0
69 71 80 82 91 92 93 0
-70 -71 -80 0
-70 -71 -82 0
-70 -71 -91 0
-70 -71 -92 0
-70 -71 -93 0
-70 -80 -82 0
-70 -80 -91 0
-70 -80 -92 0
-70 -80 -93 0
-70 -82 -91 0
-70 -82 -92 0
-70 -82 -93 0
-70 -91 -92 0
-70 -91 -93 0
-70 -92 -93 0
70 71 80 82 91 92 93 0
-71 -80 -82 0
-71 -80 -91 0
-71 -80 -92 0
-71 -80 -93 0
-71 -82 -91 0
-71 -82 -92 0
-71 -82 -93 0
-71 -91 -92 0
-71 -91 -93 0
-71 -92 -93 0
-80 -82 -91 0
-80 -82 -92 0
-80 -82 -93 0
-80 -91 -92 0
-80 -91 -93 0
-80 -92 -93 0
-82 -91 -92 0
-82 -91 -93 0
-82 -92 -93 0
-91 -92 -93 0
-82 0
-70 -71 -72 -81 0
-70 -71 -72 -83 0
-70 -71 -72 -92 0
-70 -71 -72 -93 0
-70 -71 -72 -94 0
-70 -71 -81 -83 0
-70 -71 -81 -92 0
-70 -71 -81 -93 0
-70 -71 -81 -94 0
-70 -71 -83 -92 0
-70 -71 -83 -93 0
-70 -71 -83 -94 0
-70 -71 -92 -93 0
-70 -71 -92 -94 0
-70 -71 -93 -94 0
-70 -72 -81 -83 0
-70 -72 -81 -92 0
-70 -72 -81 -93 0
-70 -72 -81 -94 0
-70 -72 -83 -92 0
-70 -72 -83 -93 0
-70 -72 -83 -94 0
-70 -72 -92 -93 0
-70 -72 -92 -94 0
-70 -72 -93 -94 0
-70 -81 -83 -92 0
-70 -81 -83 -93 0
-70 -81 -83 -94 0
-70 -81 -92 -93 0
-70 -81 -92 -94 0
-70 -81 -93 -94 0
-70 -83 -92 -93 0
-70 -83 -92 -94 0
-70 -83 -93 -94 0
-70 -92 -93 -94 0
70 71 72 81 83 92 0
70 71 72 81 83 93 0
70 71 72 81 83 94 0
70 71 72 81 92 93 0
70 71 72 81 92 94 0
70 71 72 81 93 94 0
70 71 72 83 92 93 0
70 71 72 83 92 94 0
70 71 72 83 93 94 0
70 71 72 92 93 94 0
70 71 81 83 92 93 0
70 71 81 83 92 94 0
70 71 81 83 93 94 0
70 71 81 92 93 94 0
70 71 83 92 93 94 0
70 72 81 83 92 93 0
70 72 81 83 92 94 0
70 72 81 83 93 94 0
70 72 81 92 93 94 0
70 72 83 92 93 94 0
70 81 83 92 93 94 0
-71 -72 -81 -83 0
-71 -72 -81 -92 0
-71 -72 -81 -93 0
-71 -72 -81 -94 0
-71 -72 -83 -92 0
-71 -72 -83 -93 0
-71 -72 -83 -94 0
-71 -72 -92 -93 0
-71 -72 -92 -94 0
-71 -72 -93 -94 0
-71 -81 -83 -92 0
-71 -81 -83 -93 0
-71 -81 -83 -94 0
-71 -81 -92 -93 0
-71 -81 -92 -94 0
-71 -81 -93 -94 0
-71 -83 -92 -93 0
-71 -83 -92 -94 0
-71 -83 -93 -94 0
-71 -92 -93 -94 0
71 72 81 83 92 93 0
71 72 81 83 92 94 0
71 72 81 83 93 94 0
71 72 81 92 93 94 0
71 72 83 92 93 94 0
71 81 83 92 93 94 0
-72 -81 -83 -92 0
-72 -81 -83 -93 0
-72 -81 -83 -94 0
-72 -81 -92 -93 0
-72 -81 -92 -94 0
-72 -81 -93 -94 0
-72 -83 -92 -93 0
-72 -83 -92 -94 0
-72 -83 -93 -94 0
-72 -92 -93 -94 0
72 81 83 92 93 94 0
-81 -83 -92 -93 0
-81 -83 -92 -94 0
-81 -83 -93 -94 0
-81 -92 -93 -94 0
-83 -92 -93 -94 0
-83 0
-71 -72 -73 -82 0
-71 -72 -73 -84 0
-71 -72 -73 -93 0
-71 -72 -73 -94 0
-71 -72 -73 -95 0
-71 -72 -82 -84 0
-71 -72 -82 -93 0
-71 -72 -82 -94 0
-71 -72 -82 -95 0
-71 -72 -84 -93 0
-71 -72 -84 -94 0
-71 -72 -84 -95 0
-71 -72 -93 -94 0
-71 -72 -93 -95 0
-71 -72 -94 -95 0
-71 -73 -82 -84 0
-71 -73 -82 -93 0
-71 -73 -82 -94 0
-71 -73 -82 -95 0
-71 -73 -84 -93 0
-71 -73 -84 -94 0
-71 -73 -84 -95 0
-71 -73 -93 -94 0
-71 -73 -93 -95 0
-71 -73 -94 -95 0
-71 -82 -84 -93 0
-71 -82 -84 -94 0
-71 -82 -84 -95 0
-71 -82 -93 -94 0
-71 -82 -93 -95 0
-71 -82 -94 -95 0
-71 -84 -93 -94 0
-71 -84 -93 -95 0
-71 -84 -94 -95 0
-71 -93 -94 -95 0
71 72 73 82 84 93 0
71 72 73 82 84 94 0
71 72 73 82 84 95 0
71 72 73 82 93 94 0
71 72 73 82 93 95 0
71 72 73 82 94 95 0
71 72 73 84 93 94 0
71 72 73 84 93 95 0
71 72 73 84 94 95 0
71 72 73 93 94 95 0
71 72 82 84 93 94 0
71 72 82 84 93 95 0
71 72 82 84 94 95 0
71 72 82 93 94 95 0
71 72 84 93 94 95 0
71 73 82 84 93 94 0
71 73 82 84 93 95 0
71 73 82 84 94 95 0
71 73 82 93 94 95 0
71 73 84 93 94 95 0
71 82 84 93 94 95 0
-72 -73 -82 -84 0
-72 -73 -82 -93 0
-72 -73 -82 -94 0
-72 -73 -82 -95 0
-72 -73 -84 -93 0
-72 -73 -84 -94 0
-72 -73 -84 -95 0
-72 -73 -93 -94 0
-72 -73 -93 -95 0
-72 -73 -94 -95 0
-72 -82 -84 -93 0
-72 -82 -84 -94 0
-72 -82 -84 -95 0
-72 -82 -93 -94 0
-72 -82 -93 -95 0
-72 -82 -94 -95 0
-72 -84 -93 -94 0
-72 -84 -93 -95 0
-72 -84 -94 -95 0
-72 -93 -94 -95 0
72 73 82 84 93 94 0
72 73 82 84 93 95 0
72 73 82 84 94 95 0
72 73 82 93 94 95 0
72 73 84 93 94 95 0
72 82 84 93 94 95 0
-73 -82 -84 -93 0
-73 -82 -84 -94 0
-73 -82 -84 -95 0
-73 -82 -93 -94 0
-73 -82 -93 -95 0
-73 -82 -94 -95 0
-73 -84 -93 -94 0
-73 -84 -93 -95 0
-73 -84 -94 -95 0
-73 -93 -94 -95 0
73 82 84 93 94 95 0
-82 -84 -93 -94 0
-82 -84 -93 -95 0
-82 -84 -94 -95 0
-82 -93 -94 -95 0
-84 -93 -94 -95 0
-84 0
-72 -73 0
-72 -74 0
-72 -83 0
-72 -85 0
-72 -94 0
-72 -95 0
-72 -96 0
72 73 74 83 85 94 95 96 0
-73 -74 0
-73 -83 0
-73 -85 0
-73 -94 0
-73 -95 0
-73 -96 0
-74 -83 0
-74 -85 0
-74 -94 0
-74 -95 0
-74 -96 0
-83 -85 0
-83 -94 0
-83 -95 0
-83 -96 0
-85 -94 0
-85 -95 0
-85 -96 0
-94 -95 0
-94 -96 0
-95 -96 0
-85 0
-73 0
-74 0
-75 0
-84 0
-86 0
-95 0
-96 0
-97 0
-86 0
-74 -75 0
-74 -76 0
-74 -85 0
-74 -87 0
-74 -96 0
-74 -97 0
-74 -98 0
74 75 76 85 87 96 97 98 0
-75 -76 0
-75 -85 0
-75 -87 0
-75 -96 0
-75 -97 0
-75 -98 0
-76 -85 0
-76 -87 0
-76 -96 0
-76 -97 0
-76 -98 0
-85 -87 0
-85 -96 0
-85 -97 0
-85 -98 0
-87 -96 0
-87 -97 0
-87 -98 0
-96 -97 0
-96 -98 0
-97 -98 0
-87 0
-75 -76 0
-75 -77 0
-75 -86 0
-75 -88 0
-75 -97 0
-75 -98 0
-75 -99 0
75 76 77 86 88 97 98 99 0
-76 -77 0
-76 -86 0
-76 -88 0
-76 -97 0
-76 -98 0
-76 -99 0
-77 -86 0
-77 -88 0
-77 -97 0
-77 -98 0
-77 -99 0
-86 -88 0
-86 -97 0
-86 -98 0
-86 -99 0
-88 -97 0
-88 -98 0
-88 -99 0
-97 -98 0
-97 -99 0
-98 -99 0
-91 0
-79 -80 -81 0
-79 -80 -90 0
-79 -80 -92 0
-79 -80 -101 0
-79 -80 -102 0
-79 -80 -103 0
-79 -81 -90 0
-79 -81 -92 0
-79 -81 -101 0
-79 -81 -102 0
-79 -81 -103 0
-79 -90 -92 0
-79 -90 -101 0
-79 -90 -102 0
-79 -90 -103 0
-79 -92 -101 0
-79 -92 -102 0
-79 -92 -103 0
-79 -101 -102 0
-79 -101 -103 0
-79 -102 -103 0
79 80 81 90 92 101 102 0
79 80 81 90 92 101 103 0
79 80 81 90 92 102 103 0
79 80 81 90 101 102 103 0
79 80 81 92 101 102 103 0
79 80 90 92 101 102 103 0
79 81 90 92 101 102 103 0
-80 -81 -90 0
-80 -81 -92 0
-80 -81 -101 0
-80 -81 -102 0
-80 -81 -103 0
-80 -90 -92 0
-80 -90 -101 0
-80 -90 -102 0
-80 -90 -103 0
-80 -92 -101 0
-80 -92 -102 0
-80 -92 -103 0
-80 -101 -102 0
-80 -101 -103 0
-80 -102 -103 0
80 81 90 92 101 102 103 0
-81 -90 -92 0
-81 -90 -101 0
-81 -90 -102 0
-81 -90 -103 0
-81 -92 -101 0
-81 -92 -102 0
-81 -92 -103 0
-81 -101 -102 0
-81 -101 -103 0
-81 -102 -103 0
-90 -92 -101 0
-90 -92 -102 0
-90 -92 -103 0
-90 -101 -102 0
-90 -101 -103 0
-90 -102 -103 0
-92 -101 -102 0
-92 -101 -103 0
-92 -102 -103 0
-101 -102 -103 0
-92 0
-80 -81 -82 0
-80 -81 -91 0
-80 -81 -93 0
-80 -81 -102 0
-80 -81 -103 0
-80 -81 -104 0
-80 -82 -91 0
-80 -82 -93 0
-80 -82 -102 0
-80 -82 -103 0
-80 -82 -104 0
-80 -91 -93 0
-80 -91 -102 0
-80 -91 -103 0
-80 -91 -104 0
-80 -93 -102 0
-80 -93 -103 0
-80 -93 -104 0
-80 -102 -103 0
-80 -102 -104 0
-80 -103 -104 0
80 81 82 91 93 102 103 0
80 81 82 91 93 102 104 0
80 81 82 91 93 103 104 0
80 81 82 91 102 103 104 0
80 81 82 93 102 103 104 0
80 81 91 93 102 103 104 0
80 82 91 93 102 103 104 0
-81 -82 -91 0
-81 -82 -93 0
-81 -82 -102 0
-81 -82 -103 0
-81 -82 -104 0
-81 -91 -93 0
-81 -91 -102 0
-81 -91 -103 0
-81 -91 -104 0
-81 -93 -102 0
-81 -93 -103 0
-81 -93 -104 0
-81 -102 -103 0
-81 -102 -104 0
-81 -103 -104 0
81 82 91 93 102 103 104 0
-82 -91 -93 0
-82 -91 -102 0
-82 -91 -103 0
-82 -91 -104 0
-82 -93 -102 0
-82 -93 -103 0
-82 -93 -104 0
-82 -102 -103 0
-82 -102 -104 0
-82 -103 -104 0
-91 -93 -102 0
-91 -93 -103 0
-91 -93 -104 0
-91 -102 -103 0
-91 -102 -104 0
-91 -103 -104 0
-93 -102 -103 0
-93 -102 -104 0
-93 -103 -104 0
-102 -103 -104 0
-95 0
-83 -84 -85 0
-83 -84 -94 0
-83 -84 -96 0
-83 -84 -105 0
-83 -84 -106 0
-83 -84 -107 0
-83 -85 -94 0
-83 -85 -96 0
-83 -85 -105 0
-83 -85 -106 0
-83 -85 -107 0
-83 -94 -96 0
-83 -94 -105 0
-83 -94 -106 0
-83 -94 -107 0
-83 -96 -105 0
-83 -96 -106 0
-83 -96 -107 0
-83 -105 -106 0
-83 -105 -107 0
-83 -106 -107 0
83 84 85 94 96 105 106 0
83 84 85 94 96 105 107 0
83 84 85 94 96 106 107 0
83 84 85 94 105 106 107 0
83 84 85 96 105 106 107 0
83 84 94 96 105 106 107 0
83 85 94 96 105 106 107 0
-84 -85 -94 0
-84 -85 -96 0
-84 -85 -105 0
-84 -85 -106 0
-84 -85 -107 0
-84 -94 -96 0
-84 -94 -105 0
-84 -94 -106 0
-84 -94 -107 0
-84 -96 -105 0
-84 -96 -106 0
-84 -96 -107 0
-84 -105 -106 0
-84 -105 -107 0
-84 -106 -107 0
84 85 94 96 105 106 107 0
-85 -94 -96 0
-85 -94 -105 0
-85 -94 -106 0
-85 -94 -107 0
-85 -96 -105 0
-85 -96 -106 0
-85 -96 -107 0
-85 -105 -106 0
-85 -105 -107 0
-85 -106 -107 0
-94 -96 -105 0
-94 -96 -106 0
-94 -96 -107 0
-94 -105 -106 0
-94 -105 -107 0
-94 -106 -107 0
-96 -105 -106 0
-96 -105 -107 0
-96 -106 -107 0
-105 -106 -107 0
-96 0
-84 -85 0
-84 -86 0
-84 -95 0
-84 -97 0
-84 -106 0
-84 -107 0
-84 -108 0
84 85 86 95 97 106 107 108 0
-85 -86 0
-85 -95 0
-85 -97 0
-85 -106 0
-85 -107 0
-85 -108 0
-86 -95 0
-86 -97 0
-86 -106 0
-86 -107 0
-86 -108 0
-95 -97 0
-95 -106 0
-95 -107 0
-95 -108 0
-97 -106 0
-97 -107 0
-97 -108 0
-106 -107 0
-106 -108 0
-107 -108 0
-97 0
-85 -86 0
-85 -87 0
-85 -96 0
-85 -98 0
-85 -107 0
-85 -108 0
-85 -109 0
85 86 87 96 98 107 108 109 0
-86 -87 0
-86 -96 0
-86 -98 0
-86 -107 0
-86 -108 0
-86 -109 0
-87 -96 0
-87 -98 0
-87 -107 0
-87 -108 0
-87 -109 0
-96 -98 0
-96 -107 0
-96 -108 0
-96 -109 0
-98 -107 0
-98 -108 0
-98 -109 0
-107 -108 0
-107 -109 0
-108 -109 0
-98 0
-86 0
-87 0
-88 0
-97 0
-99 0
-108 0
-109 0
-110 0
-104 0
-92 -93 -94 -103 0
-92 -93 -94 -105 0
-92 -93 -94 -114 0
-92 -93 -94 -115 0
-92 -93 -94 -116 0
-92 -93 -103 -105 0
-92 -93 -103 -114 0
-92 -93 -103 -115 0
-92 -93 -103 -116 0
-92 -93 -105 -114 0
-92 -93 -105 -115 0
-92 -93 -105 -116 0
-92 -93 -114 -115 0
-92 -93 -114 -116 0
-92 -93 -115 -116 0
-92 -94 -103 -105 0
-92 -94 -103 -114 0
-92 -94 -103 -115 0
-92 -94 -103 -116 0
-92 -94 -105 -114 0
-92 -94 -105 -115 0
-92 -94 -105 -116 0
-92 -94 -114 -115 0
-92 -94 -114 -116 0
-92 -94 -115 -116 0
-92 -103 -105 -114 0
-92 -103 -105 -115 0
-92 -103 -105 -116 0
-92 -103 -114 -115 0
-92 -103 -114 -116 0
-92 -103 -115 -116 0
-92 -105 -114 -115 0
-92 -105 -114 -116 0
-92 -105 -115 -116 0
-92 -114 -115 -116 0
92 93 94 103 105 114 0
92 93 94 103 105 115 0
92 93 94 103 105 116 0
92 93 94 103 114 115 0
92 93 94 103 114 116 0
92 93 94 103 115 116 0
92 93 94 105 114 115 0
92 93 94 105 114 116 0
92 93 94 105 115 116 0
92 93 94 114 115 116 0
92 93 103 105 114 115 0
92 93 103 105 114 116 0
92 93 103 105 115 116 0
92 93 103 114 115 116 0
92 93 105 114 115 116 0
92 94 103 105 114 115 0
92 94 103 105 114 116 0
92 94 103 105 115 116 0
92 94 103 114 115 116 0
92 94 105 114 115 116 0
92 103 105 114 115 116 0
-93 -94 -103 -105 0
-93 -94 -103 -114 0
-93 -94 -103 -115 0
-93 -94 -103 -116 0
-93 -94 -105 -114 0
-93 -94 -105 -115 0
-93 -94 -105 -116 0
-93 -94 -114 -115 0
-93 -94 -114 -116 0
-93 -94 -115 -116 0
-93 -103 -105 -114 0
-93 -103 -105 -115 0
-93 -103 -105 -116 0
-93 -103 -114 -115 0
-93 -103 -114 -116 0
-93 -103 -115 -116 0
-93 -105 -114 -115 0
-93 -105 -114 -116 0
-93 -105 -115 -116 0
-93 -114 -115 -116 0
93 94 103 105 114 115 0
93 94 103 105 114 116 0
93 94 103 105 115 116 0
93 94 103 114 115 116 0
93 94 105 114 115 116 0
93 103 105 114 115 116 0
-94 -103 -105 -114 0
-94 -103 -105 -115 0
-94 -103 -105 -116 0
-94 -103 -114 -115 0
-94 -103 -114 -116 0
-94 -103 -115 -116 0
-94 -105 -114 -115 0
-94 -105 -114 -116 0
-94 -105 -115 -116 0
-94 -114 -115 -116 0
94 103 105 114 115 116 0
-103 -105 -114 -115 0
-103 -105 -114 -116 0
-103 -105 -115 -116 0
-103 -114 -115 -116 0
-105 -114 -115 -116 0
-105 0
-93 -94 -95 0
-93 -94 -104 0
-93 -94 -106 0
-93 -94 -115 0
-93 -94 -116 0
-93 -94 -117 0
-93 -95 -104 0
-93 -95 -106 0
-93 -95 -115 0
-93 -95 -116 0
-93 -95 -117 0
-93 -104 -106 0
-93 -104 -115 0
-93 -104 -116 0
-93 -104 -117 0
-93 -106 -115 0
-93 -106 -116 0
-93 -106 -117 0
-93 -115 -116 0
-93 -115 -117 0
-93 -116 -117 0
93 94 95 104 106 115 116 0
93 94 95 104 106 115 117 0
93 94 95 104 106 116 117 0
93 94 95 104 115 116 117 0
93 94 95 106 115 116 117 0
93 94 104 106 115 116 117 0
93 95 104 106 115 116 117 0
-94 -95 -104 0
-94 -95 -106 0
-94 -95 -115 0
-94 -95 -116 0
-94 -95 -117 0
-94 -104 -106 0
-94 -104 -115 0
-94 -104 -116 0
-94 -104 -117 0
-94 -106 -115 0
-94 -106 -116 0
-94 -106 -117 0
-94 -115 -116 0
-94 -115 -117 0
-94 -116 -117 0
94 95 104 106 115 116 117 0
-95 -104 -106 0
-95 -104 -115 0
-95 -104 -116 0
-95 -104 -117 0
-95 -106 -115 0
-95 -106 -116 0
-95 -106 -117 0
-95 -115 -116 0
-95 -115 -117 0
-95 -116 -117 0
-104 -106 -115 0
-104 -106 -116 0
-104 -106 -117 0
-104 -115 -116 0
-104 -115 -117 0
-104 -116 -117 0
-106 -115 -116 0
-106 -115 -117 0
-106 -116 -117 0
-115 -116 -117 0
-106 0
-94 -95 -96 0
-94 -95 -105 0
-94 -95 -107 0
-94 -95 -116 0
-94 -95 -117 0
-94 -95 -118 0
-94 -96 -105 0
-94 -96 -107 0
-94 -96 -116 0
-94 -96 -117 0
-94 -96 -118 0
-94 -105 -107 0
-94 -105 -116 0
-94 -105 -117 0
-94 -105 -118 0
-94 -107 -116 0
-94 -107 -117 0
-94 -107 -118 0
-94 -116 -117 0
-94 -116 -118 0
-94 -117 -118 0
94 95 96 105 107 116 117 0
94 95 96 105 107 116 118 0
94 95 96 105 107 117 118 0
94 95 96 105 116 117 118 0
94 95 96 107 116 117 118 0
94 95 105 107 116 117 118 0
94 96 105 107 116 117 118 0
-95 -96 -105 0
-95 -96 -107 0
-95 -96 -116 0
-95 -96 -117 0
-95 -96 -118 0
-95 -105 -107 0
-95 -105 -116 0
-95 -105 -117 0
-95 -105 -118 0
-95 -107 -116 0
-95 -107 -117 0
-95 -107 -118 0
-95 -116 -117 0
-95 -116 -118 0
-95 -117 -118 0
95 96 105 107 116 117 118 0
-96 -105 -107 0
-96 -105 -116 0
-96 -105 -117 0
-96 -105 -118 0
-96 -107 -116 0
-96 -107 -117 0
-96 -107 -118 0
-96 -116 -117 0
-96 -116 -118 0
-96 -117 -118 0
-105 -107 -116 0
-105 -107 -117 0
-105 -107 -118 0
-105 -116 -117 0
-105 -116 -118 0
-105 -117 -118 0
-107 -116 -117 0
-107 -116 -118 0
-107 -117 -118 0
-116 -117 -118 0
-108 0
-96 -97 0
-96 -98 0
-96 -107 0
-96 -109 0
-96 -118 0
-96 -119 0
-96 -120 0
96 97 98 107 109 118 119 120 0
-97 -98 0
-97 -107 0
-97 -109 0
-97 -118 0
-97 -119 0
-97 -120 0
-98 -107 0
-98 -109 0
-98 -118 0
-98 -119 0
-98 -120 0
-107 -109 0
-107 -118 0
-107 -119 0
-107 -120 0
-109 -118 0
-109 -119 0
-109 -120 0
-118 -119 0
-118 -120 0
-119 -120 0
-109 0
-97 0
-98 0
-99 0
-108 0
-110 0
-119 0
-120 0
-121 0
107 0
